
Gurobi 6.0.2 (win64) logging started 06/12/15 16:44:52

Read LP format model from file C:\MT\repository\VRPTWMS\instances\mip\fuel\N5-C_DV100-C_SV25_F5_1_No_1.lp
Reading time = 0.00 seconds
(null): 186 rows, 103 columns, 698 nonzeros
Optimize a model with 186 rows, 103 columns and 698 nonzeros
Model has 150 quadratic constraints
WARNING: Only barrier available for SOCP models
Coefficient statistics:
  Matrix range    [1e+00, 1e+02]
  Objective range [1e+01, 1e+03]
  Bounds range    [1e+00, 1e+02]
  RHS range       [1e+00, 1e+02]
Presolve removed 16 rows and 5 columns
Presolve time: 0.02s
Presolved: 495 rows, 273 columns, 2226 nonzeros
Variable types: 150 continuous, 123 integer (95 binary)
Found heuristic solution: objective 5179.4000000
Optimize a model with 495 rows, 273 columns and 2226 nonzeros
Coefficient statistics:
  Matrix range    [1e+00, 1e+02]
  Objective range [1e+01, 1e+03]
  Bounds range    [1e+00, 1e+02]
  RHS range       [1e+00, 1e+02]
Presolve removed 66 rows and 47 columns
Presolved: 429 rows, 227 columns, 1980 nonzeros


Root relaxation: objective 8.185010e+01, 33 iterations, 0.00 seconds

    Nodes    |    Current Node    |     Objective Bounds      |     Work
 Expl Unexpl |  Obj  Depth IntInf | Incumbent    BestBd   Gap | It/Node Time

     0     0   81.85010    0   15 5179.40000   81.85010  98.4%     -    0s
     0     0  100.97000    0   24 5179.40000  100.97000  98.1%     -    0s
H    0     0                    4153.0200000  100.97000  97.6%     -    0s
H    0     0                    3149.6300000  100.97000  96.8%     -    0s
     0     0  100.97000    0   18 3149.63000  100.97000  96.8%     -    0s
     0     0  100.97000    0   22 3149.63000  100.97000  96.8%     -    0s
     0     0  100.97000    0   17 3149.63000  100.97000  96.8%     -    0s
     0     0  100.97000    0   17 3149.63000  100.97000  96.8%     -    0s
H    0     0                    2184.3300000  100.97000  95.4%     -    0s
     0     0  100.97000    0   12 2184.33000  100.97000  95.4%     -    0s
     0     0  100.97000    0   19 2184.33000  100.97000  95.4%     -    0s
     0     0  100.97000    0   19 2184.33000  100.97000  95.4%     -    0s
     0     0  100.97000    0   19 2184.33000  100.97000  95.4%     -    0s
     0     2  100.97000    0   19 2184.33000  100.97000  95.4%     -    0s
*  908   419              29    2184.0700000  116.04193  94.7%  17.0    0s
H  928   407                    2179.3500000  116.04193  94.7%  17.1    0s
H 1025   367                    2168.1500000  148.77455  93.1%  17.8    0s
H 1432   267                    2165.1100000  288.16159  86.7%  21.4    1s

Cutting planes:
  Learned: 10
  Gomory: 10
  Cover: 2
  Implied bound: 64
  MIR: 35
  Flow cover: 22
  GUB cover: 1
  Zero half: 7

Explored 2698 nodes (66044 simplex iterations) in 2.02 seconds
Thread count was 2 (of 4 available processors)

Optimal solution found (tolerance 1.00e-04)
Best objective 2.165110000000e+03, best bound 2.165110000000e+03, gap 0.0%
k_c1	98.0
k_c2	2.0
k_c3	100.0
k_c4	92.0
k_c5	94.0
k_dN	-0.0
o_1	0.0
o_2	0.0
o_3	0.0
o_4	-0.0
o_5	0.0
p_1	0.0
p_2	0.0
p_3	0.0
p_4	1.0
p_5	1.0
phi_c1	2.0
phi_c2	2.0
phi_c3	3.0
phi_c4	0.0
phi_c5	0.0
phi_dN	-0.0
pi_c1	-0.0
pi_c2	0.0
pi_c3	10.0
pi_c4	15.0
pi_c5	20.0
pi_dN	-0.0
tauD_c1	25.0
tauD_c2	89.0
tauD_c3	10.0
tauD_c4	61.0
tauD_c5	36.0
tauD_d0	-0.0
tauD_dN	100.0
tauS_c1	82.0
tauS_c2	83.0
tauS_c3	87.0
tauS_c4	61.0
tauS_c5	46.0
tauS_d0	-0.0
tauS_dN	83.0
x_c1_c5	1.0
x_c2_dN	1.0
x_c3_c1	1.0
x_c4_c2	1.0
x_c5_c4	1.0
x_d0_c3	1.0
z_c4_dN	1.0
z_c5_c4	1.0
z_d0_c5	1.0
